proyfinal/src/viki/013/experimentInOfficeAgust.take6.output/ec621060-aaa1-4ef3-8a90-579e533515ec.als.out
Reading from standard input... Use '--help' for help.
============================[ Problem Statistics ]=============================
|                                                                             |
|  Number of variables:         87638                                         |
|  Number of clauses:          161767                                         |
|  Parse time:                   0.04 s                                       |
|                                                                             |
============================[ Search Statistics ]==============================
| Conflicts |          ORIGINAL         |          LEARNT          | Progress |
|           |    Vars  Clauses Literals |    Limit  Clauses Lit/Cl |          |
===============================================================================
|       100 |   63958   110856   276874 |    40647      100     19 | 27.020 % |
|       250 |   56582    88358   221379 |    44711      248     22 | 35.437 % |
|       475 |   56582    88358   221379 |    49183      473     21 | 35.437 % |
|       812 |   56582    88358   221379 |    54101      810     39 | 35.437 % |
|      1318 |   56357    87470   219266 |    59511     1311     40 | 35.693 % |
|      2077 |   56356    87426   219176 |    65462     2069     45 | 35.695 % |
|      3216 |   54663    81611   204344 |    72008     2940     49 | 37.626 % |
|      4924 |   54462    80728   202271 |    79209     4583     51 | 37.856 % |
|      7486 |   54254    80196   200994 |    87130     6230     53 | 38.093 % |
|     11330 |   53914    78381   196673 |    95843     9425     52 | 38.481 % |
|     17096 |   53707    77569   194783 |   105428    14193     54 | 38.717 % |
===============================================================================
restarts              : 63
conflicts             : 18693          (9170 /sec)
decisions             : 61543          (0.00 % random) (30191 /sec)
propagations          : 21498028       (10546226 /sec)
conflict literals     : 947113         (43.06 % deleted)
Memory used           : 33.52 MB
CPU time              : 2.03846 s

UNSATISFIABLE
